125 
300 
-0.5 0 0 0
0.5 0 0 -139
-7 -7 -35 -104
-7 -5 -35 -74
-7 -3 -35 -86
-7 -1 -35 -124
-7 1 -35 -77
-7 3 35 -29
-7 5 -35 -73
-7 7 -35 -68
-5 -7 35 -28
-5 -5 25 -11
-5 -3 -25 -63
-5 -1 25 -28
-5 1 25 -23
-5 3 25 -27
-5 5 25 -27
-5 7 35 -27
-3 -7 -35 -112
-3 -5 -25 -111
-3 -3 -15 -114
-3 -1 15 -17
-3 1 15 -12
-3 3 -15 -129
-3 5 25 -15
-3 7 -35 -62
-1 -7 35 -14
-1 -5 -25 -81
-1 -3 15 -13
-1 -1 5 -18
-1 1 5 -15
-1 3 15 -20
-1 5 -25 -136
-1 7 -35 -99
1 -7 -35 -67
1 -5 25 -27
1 -3 15 -25
1 -1 5 -19
1 1 -5 -136
1 3 15 -25
1 5 25 -25
1 7 -35 -60
3 -7 35 -12
3 -5 25 -12
3 -3 15 -19
3 -1 -15 -114
3 1 -15 -71
3 3 -15 -61
3 5 -25 -100
3 7 35 -25
5 -7 35 -22
5 -5 25 -17
5 -3 -25 -61
5 -1 -25 -63
5 1 -25 -120
5 3 -25 -90
5 5 25 -15
5 7 35 -14
7 -7 -35 -64
7 -5 35 -21
7 -3 35 -18
7 -1 -35 -137
7 1 35 -15
7 3 35 -18
7 5 -35 -119
7 7 -35 -119
